c File: flat50_3_0.col
c
c SOURCE: Joseph Culberson (joe@cs.ualberta.ca)
c DESCRIPTION: Quasi-random coloring problem
c              generated with flatness = 0
c                             probability = 0.139
c                             known coloring = 3
c                             random seed = 1076
c              Creation Date:  Tue Jun  9 12:00:35 1998
c Maximum degree = 8 Minimum degree = 1
c p edge 50 115
c cnf created by edge2cnf
p cnf 150 545
-1 -2 0
-1 -3 0
-2 -3 0
1 2 3 0
-4 -5 0
-4 -6 0
-5 -6 0
4 5 6 0
-7 -8 0
-7 -9 0
-8 -9 0
7 8 9 0
-10 -11 0
-10 -12 0
-11 -12 0
10 11 12 0
-13 -14 0
-13 -15 0
-14 -15 0
13 14 15 0
-16 -17 0
-16 -18 0
-17 -18 0
16 17 18 0
-19 -20 0
-19 -21 0
-20 -21 0
19 20 21 0
-22 -23 0
-22 -24 0
-23 -24 0
22 23 24 0
-25 -26 0
-25 -27 0
-26 -27 0
25 26 27 0
-28 -29 0
-28 -30 0
-29 -30 0
28 29 30 0
-31 -32 0
-31 -33 0
-32 -33 0
31 32 33 0
-34 -35 0
-34 -36 0
-35 -36 0
34 35 36 0
-37 -38 0
-37 -39 0
-38 -39 0
37 38 39 0
-40 -41 0
-40 -42 0
-41 -42 0
40 41 42 0
-43 -44 0
-43 -45 0
-44 -45 0
43 44 45 0
-46 -47 0
-46 -48 0
-47 -48 0
46 47 48 0
-49 -50 0
-49 -51 0
-50 -51 0
49 50 51 0
-52 -53 0
-52 -54 0
-53 -54 0
52 53 54 0
-55 -56 0
-55 -57 0
-56 -57 0
55 56 57 0
-58 -59 0
-58 -60 0
-59 -60 0
58 59 60 0
-61 -62 0
-61 -63 0
-62 -63 0
61 62 63 0
-64 -65 0
-64 -66 0
-65 -66 0
64 65 66 0
-67 -68 0
-67 -69 0
-68 -69 0
67 68 69 0
-70 -71 0
-70 -72 0
-71 -72 0
70 71 72 0
-73 -74 0
-73 -75 0
-74 -75 0
73 74 75 0
-76 -77 0
-76 -78 0
-77 -78 0
76 77 78 0
-79 -80 0
-79 -81 0
-80 -81 0
79 80 81 0
-82 -83 0
-82 -84 0
-83 -84 0
82 83 84 0
-85 -86 0
-85 -87 0
-86 -87 0
85 86 87 0
-88 -89 0
-88 -90 0
-89 -90 0
88 89 90 0
-91 -92 0
-91 -93 0
-92 -93 0
91 92 93 0
-94 -95 0
-94 -96 0
-95 -96 0
94 95 96 0
-97 -98 0
-97 -99 0
-98 -99 0
97 98 99 0
-100 -101 0
-100 -102 0
-101 -102 0
100 101 102 0
-103 -104 0
-103 -105 0
-104 -105 0
103 104 105 0
-106 -107 0
-106 -108 0
-107 -108 0
106 107 108 0
-109 -110 0
-109 -111 0
-110 -111 0
109 110 111 0
-112 -113 0
-112 -114 0
-113 -114 0
112 113 114 0
-115 -116 0
-115 -117 0
-116 -117 0
115 116 117 0
-118 -119 0
-118 -120 0
-119 -120 0
118 119 120 0
-121 -122 0
-121 -123 0
-122 -123 0
121 122 123 0
-124 -125 0
-124 -126 0
-125 -126 0
124 125 126 0
-127 -128 0
-127 -129 0
-128 -129 0
127 128 129 0
-130 -131 0
-130 -132 0
-131 -132 0
130 131 132 0
-133 -134 0
-133 -135 0
-134 -135 0
133 134 135 0
-136 -137 0
-136 -138 0
-137 -138 0
136 137 138 0
-139 -140 0
-139 -141 0
-140 -141 0
139 140 141 0
-142 -143 0
-142 -144 0
-143 -144 0
142 143 144 0
-145 -146 0
-145 -147 0
-146 -147 0
145 146 147 0
-148 -149 0
-148 -150 0
-149 -150 0
148 149 150 0
-88 -1 0
-89 -2 0
-90 -3 0
-97 -1 0
-98 -2 0
-99 -3 0
-103 -1 0
-104 -2 0
-105 -3 0
-112 -1 0
-113 -2 0
-114 -3 0
-118 -1 0
-119 -2 0
-120 -3 0
-73 -4 0
-74 -5 0
-75 -6 0
-79 -4 0
-80 -5 0
-81 -6 0
-88 -4 0
-89 -5 0
-90 -6 0
-97 -4 0
-98 -5 0
-99 -6 0
-103 -4 0
-104 -5 0
-105 -6 0
-112 -4 0
-113 -5 0
-114 -6 0
-133 -4 0
-134 -5 0
-135 -6 0
-136 -4 0
-137 -5 0
-138 -6 0
-58 -7 0
-59 -8 0
-60 -9 0
-61 -7 0
-62 -8 0
-63 -9 0
-76 -7 0
-77 -8 0
-78 -9 0
-118 -7 0
-119 -8 0
-120 -9 0
-58 -10 0
-59 -11 0
-60 -12 0
-115 -10 0
-116 -11 0
-117 -12 0
-124 -10 0
-125 -11 0
-126 -12 0
-109 -13 0
-110 -14 0
-111 -15 0
-121 -13 0
-122 -14 0
-123 -15 0
-148 -13 0
-149 -14 0
-150 -15 0
-70 -16 0
-71 -17 0
-72 -18 0
-100 -16 0
-101 -17 0
-102 -18 0
-121 -16 0
-122 -17 0
-123 -18 0
-133 -16 0
-134 -17 0
-135 -18 0
-58 -19 0
-59 -20 0
-60 -21 0
-97 -19 0
-98 -20 0
-99 -21 0
-133 -19 0
-134 -20 0
-135 -21 0
-67 -22 0
-68 -23 0
-69 -24 0
-82 -22 0
-83 -23 0
-84 -24 0
-91 -22 0
-92 -23 0
-93 -24 0
-121 -22 0
-122 -23 0
-123 -24 0
-133 -22 0
-134 -23 0
-135 -24 0
-142 -22 0
-143 -23 0
-144 -24 0
-52 -25 0
-53 -26 0
-54 -27 0
-76 -25 0
-77 -26 0
-78 -27 0
-97 -25 0
-98 -26 0
-99 -27 0
-64 -28 0
-65 -29 0
-66 -30 0
-79 -28 0
-80 -29 0
-81 -30 0
-112 -28 0
-113 -29 0
-114 -30 0
-118 -28 0
-119 -29 0
-120 -30 0
-124 -28 0
-125 -29 0
-126 -30 0
-145 -28 0
-146 -29 0
-147 -30 0
-52 -31 0
-53 -32 0
-54 -33 0
-67 -31 0
-68 -32 0
-69 -33 0
-82 -31 0
-83 -32 0
-84 -33 0
-130 -31 0
-131 -32 0
-132 -33 0
-136 -31 0
-137 -32 0
-138 -33 0
-58 -34 0
-59 -35 0
-60 -36 0
-79 -34 0
-80 -35 0
-81 -36 0
-88 -34 0
-89 -35 0
-90 -36 0
-112 -34 0
-113 -35 0
-114 -36 0
-127 -34 0
-128 -35 0
-129 -36 0
-73 -37 0
-74 -38 0
-75 -39 0
-94 -37 0
-95 -38 0
-96 -39 0
-121 -37 0
-122 -38 0
-123 -39 0
-142 -37 0
-143 -38 0
-144 -39 0
-145 -37 0
-146 -38 0
-147 -39 0
-55 -40 0
-56 -41 0
-57 -42 0
-64 -40 0
-65 -41 0
-66 -42 0
-76 -40 0
-77 -41 0
-78 -42 0
-94 -40 0
-95 -41 0
-96 -42 0
-127 -40 0
-128 -41 0
-129 -42 0
-130 -40 0
-131 -41 0
-132 -42 0
-67 -43 0
-68 -44 0
-69 -45 0
-100 -43 0
-101 -44 0
-102 -45 0
-106 -43 0
-107 -44 0
-108 -45 0
-109 -43 0
-110 -44 0
-111 -45 0
-118 -43 0
-119 -44 0
-120 -45 0
-61 -46 0
-62 -47 0
-63 -48 0
-73 -46 0
-74 -47 0
-75 -48 0
-91 -49 0
-92 -50 0
-93 -51 0
-100 -49 0
-101 -50 0
-102 -51 0
-106 -49 0
-107 -50 0
-108 -51 0
-127 -49 0
-128 -50 0
-129 -51 0
-106 -52 0
-107 -53 0
-108 -54 0
-112 -52 0
-113 -53 0
-114 -54 0
-127 -55 0
-128 -56 0
-129 -57 0
-139 -55 0
-140 -56 0
-141 -57 0
-106 -58 0
-107 -59 0
-108 -60 0
-103 -61 0
-104 -62 0
-105 -63 0
-124 -61 0
-125 -62 0
-126 -63 0
-130 -61 0
-131 -62 0
-132 -63 0
-103 -64 0
-104 -65 0
-105 -66 0
-121 -64 0
-122 -65 0
-123 -66 0
-115 -67 0
-116 -68 0
-117 -69 0
-130 -67 0
-131 -68 0
-132 -69 0
-142 -67 0
-143 -68 0
-144 -69 0
-106 -70 0
-107 -71 0
-108 -72 0
-121 -70 0
-122 -71 0
-123 -72 0
-142 -70 0
-143 -71 0
-144 -72 0
-148 -70 0
-149 -71 0
-150 -72 0
-115 -73 0
-116 -74 0
-117 -75 0
-118 -76 0
-119 -77 0
-120 -78 0
-103 -79 0
-104 -80 0
-105 -81 0
-109 -82 0
-110 -83 0
-111 -84 0
-112 -82 0
-113 -83 0
-114 -84 0
-112 -85 0
-113 -86 0
-114 -87 0
-109 -88 0
-110 -89 0
-111 -90 0
-115 -88 0
-116 -89 0
-117 -90 0
-118 -88 0
-119 -89 0
-120 -90 0
-118 -91 0
-119 -92 0
-120 -93 0
-142 -91 0
-143 -92 0
-144 -93 0
-145 -91 0
-146 -92 0
-147 -93 0
-148 -91 0
-149 -92 0
-150 -93 0
-118 -94 0
-119 -95 0
-120 -96 0
-109 -97 0
-110 -98 0
-111 -99 0
-112 -97 0
-113 -98 0
-114 -99 0
-124 -97 0
-125 -98 0
-126 -99 0
-121 -100 0
-122 -101 0
-123 -102 0
-124 -100 0
-125 -101 0
-126 -102 0
-127 -100 0
-128 -101 0
-129 -102 0
-133 -100 0
-134 -101 0
-135 -102 0
